(benchmark gametime
:status unknown
:logic QF_AUFBV
:extrafuns ((gtINDEX104  BitVec[32]))
:extrafuns ((gtFIELD__bitsForTID0__gtAGG____anonstruct_D_Work_4  Array[32:32]))
:extrafuns ((gtINDEX105  BitVec[32]))
:extrafuns ((gtAGG__rtDWork  BitVec[32]))
:extrafuns ((gtINDEX102  BitVec[32]))
:extrafuns ((gtINDEX103  BitVec[32]))
:extrafuns ((gtINDEX100  BitVec[32]))
:extrafuns ((gtINDEX101  BitVec[32]))
:extrafuns ((gtINDEX98  BitVec[32]))
:extrafuns ((gtINDEX99  BitVec[32]))
:extrafuns ((gtINDEX97  BitVec[32]))
:extrafuns ((gtINDEX96  BitVec[32]))
:extrafuns ((gtINDEX95  BitVec[32]))
:extrafuns ((gtINDEX94  BitVec[32]))
:extrafuns ((gtINDEX92  BitVec[32]))
:extrafuns ((gtINDEX93  BitVec[32]))
:extrafuns ((gtINDEX90  BitVec[32]))
:extrafuns ((gtINDEX91  BitVec[32]))
:extrafuns ((gtINDEX89  BitVec[32]))
:extrafuns ((gtINDEX87  BitVec[32]))
:extrafuns ((gtINDEX88  BitVec[32]))
:extrafuns ((gtINDEX85  BitVec[32]))
:extrafuns ((gtINDEX86  BitVec[32]))
:extrafuns ((gtINDEX84  BitVec[32]))
:extrafuns ((gtINDEX83  BitVec[32]))
:extrafuns ((gtINDEX81  BitVec[32]))
:extrafuns ((gtINDEX82  BitVec[32]))
:extrafuns ((gtINDEX79  BitVec[32]))
:extrafuns ((gtINDEX80  BitVec[32]))
:extrafuns ((gtINDEX77  BitVec[32]))
:extrafuns ((gtINDEX78  BitVec[32]))
:extrafuns ((gtINDEX76  BitVec[32]))
:extrafuns ((gtINDEX74  BitVec[32]))
:extrafuns ((gtINDEX75  BitVec[32]))
:extrafuns ((gtINDEX72  BitVec[32]))
:extrafuns ((gtINDEX73  BitVec[32]))
:extrafuns ((gtINDEX70  BitVec[32]))
:extrafuns ((gtINDEX71  BitVec[32]))
:extrafuns ((gtINDEX69  BitVec[32]))
:extrafuns ((gtINDEX67  BitVec[32]))
:extrafuns ((gtINDEX68  BitVec[32]))
:extrafuns ((gtINDEX66  BitVec[32]))
:extrafuns ((gtINDEX64  BitVec[32]))
:extrafuns ((gtINDEX65  BitVec[32]))
:extrafuns ((gtINDEX62  BitVec[32]))
:extrafuns ((gtINDEX63  BitVec[32]))
:extrafuns ((gtINDEX60  BitVec[32]))
:extrafuns ((gtINDEX61  BitVec[32]))
:extrafuns ((gtINDEX58  BitVec[32]))
:extrafuns ((gtINDEX59  BitVec[32]))
:extrafuns ((gtINDEX56  BitVec[32]))
:extrafuns ((gtINDEX57  BitVec[32]))
:extrafuns ((gtINDEX54  BitVec[32]))
:extrafuns ((gtINDEX55  BitVec[32]))
:extrafuns ((gtINDEX52  BitVec[32]))
:extrafuns ((gtINDEX53  BitVec[32]))
:extrafuns ((gtINDEX50  BitVec[32]))
:extrafuns ((gtINDEX51  BitVec[32]))
:extrafuns ((gtINDEX48  BitVec[32]))
:extrafuns ((gtINDEX49  BitVec[32]))
:extrafuns ((gtINDEX46  BitVec[32]))
:extrafuns ((gtINDEX47  BitVec[32]))
:extrafuns ((gtINDEX45  BitVec[32]))
:extrafuns ((gtINDEX44  BitVec[32]))
:extrafuns ((gtINDEX42  BitVec[32]))
:extrafuns ((gtINDEX43  BitVec[32]))
:extrafuns ((gtINDEX40  BitVec[32]))
:extrafuns ((gtINDEX41  BitVec[32]))
:extrafuns ((gtINDEX38  BitVec[32]))
:extrafuns ((gtINDEX39  BitVec[32]))
:extrafuns ((gtINDEX36  BitVec[32]))
:extrafuns ((gtINDEX37  BitVec[32]))
:extrafuns ((gtINDEX34  BitVec[32]))
:extrafuns ((gtINDEX35  BitVec[32]))
:extrafuns ((gtINDEX33  BitVec[32]))
:extrafuns ((gtINDEX31  BitVec[32]))
:extrafuns ((gtINDEX32  BitVec[32]))
:extrafuns ((gtINDEX29  BitVec[32]))
:extrafuns ((gtINDEX30  BitVec[32]))
:extrafuns ((gtINDEX27  BitVec[32]))
:extrafuns ((gtINDEX28  BitVec[32]))
:extrafuns ((gtINDEX25  BitVec[32]))
:extrafuns ((gtINDEX26  BitVec[32]))
:extrafuns ((gtINDEX23  BitVec[32]))
:extrafuns ((gtINDEX24  BitVec[32]))
:extrafuns ((gtINDEX21  BitVec[32]))
:extrafuns ((gtINDEX22  BitVec[32]))
:extrafuns ((gtINDEX19  BitVec[32]))
:extrafuns ((gtINDEX20  BitVec[32]))
:extrafuns ((gtINDEX17  BitVec[32]))
:extrafuns ((gtINDEX18  BitVec[32]))
:extrafuns ((gtINDEX15  BitVec[32]))
:extrafuns ((gtINDEX16  BitVec[32]))
:extrafuns ((gtINDEX13  BitVec[32]))
:extrafuns ((gtINDEX14  BitVec[32]))
:extrafuns ((gtINDEX11  BitVec[32]))
:extrafuns ((gtINDEX12  BitVec[32]))
:extrafuns ((gtINDEX9  BitVec[32]))
:extrafuns ((gtINDEX10  BitVec[32]))
:extrafuns ((gtINDEX7  BitVec[32]))
:extrafuns ((gtINDEX8  BitVec[32]))
:extrafuns ((gtINDEX6  BitVec[32]))
:extrafuns ((gtINDEX5  BitVec[32]))
:extrafuns ((gtINDEX4  BitVec[32]))
:extrafuns ((gtINDEX3  BitVec[32]))
:extrafuns ((gtINDEX2  BitVec[32]))
:extrafuns ((gtINDEX1  BitVec[32]))
:extrafuns ((gtINDEX0  BitVec[32]))
:extrafuns ((gtFIELD__is_Eng__gtAGG____anonstruct_bitsForTID0_5_1_  Array[32:1]))
:extrafuns ((gtFIELD__is_Eng__gtAGG____anonstruct_bitsForTID0_5_2_  Array[32:1]))
:extrafuns ((sf_previousEvent_1_  BitVec[32]))
:extrafuns ((sfEvent__2_  BitVec[32]))
:extrafuns ((gtFIELD__is_Eng__gtAGG____anonstruct_bitsForTID0_5  Array[32:1]))
:extrafuns ((gtFIELD__sent__gtAGG____anonstruct_D_Work_4_1_  Array[32:32]))
:extrafuns ((gtFIELD__sent__gtAGG____anonstruct_D_Work_4_2_  Array[32:32]))
:extrafuns ((gtFIELD__is_active_Eng__gtAGG____anonstruct_bitsForTID0_5  Array[32:1]))
:extrafuns ((gtFIELD__temporalCounter_i5__gtAGG____anonstruct_D_Work_4  Array[32:32]))
:extrafuns ((gtFIELD__temporalCounter_i5__gtAGG____anonstruct_D_Work_4_1_  Array[32:32]))
:extrafuns ((gtFIELD__is_PURI__gtAGG____anonstruct_bitsForTID0_5  Array[32:2]))
:extrafuns ((gtFIELD__is_PURI__gtAGG____anonstruct_bitsForTID0_5_1_  Array[32:2]))
:extrafuns ((gtFIELD__URIex__gtAGG____anonstruct_bitsForTID0_5  Array[32:1]))
:extrafuns ((gtFIELD__URIex__gtAGG____anonstruct_bitsForTID0_5_1_  Array[32:1]))
:extrafuns ((gtFIELD__sh_rst__gtAGG____anonstruct_D_Work_4  Array[32:32]))
:extrafuns ((gtFIELD__sh_rst__gtAGG____anonstruct_D_Work_4_1_  Array[32:32]))
:extrafuns ((gtFIELD__n_t_a__gtAGG____anonstruct_D_Work_4  Array[32:32]))
:extrafuns ((gtFIELD__n_t_a__gtAGG____anonstruct_D_Work_4_1_  Array[32:32]))
:extrafuns ((sfEvent__1_  BitVec[32]))
:extrafuns ((gtFIELD__is_active_PURI__gtAGG____anonstruct_bitsForTID0_5  Array[32:1]))
:extrafuns ((gtFIELD__is_PVRP__gtAGG____anonstruct_bitsForTID0_5  Array[32:2]))
:extrafuns ((gtFIELD__is_active_PVRP__gtAGG____anonstruct_bitsForTID0_5  Array[32:1]))
:extrafuns ((gtFIELD__temporalCounter_i3__gtAGG____anonstruct_D_Work_4_1_  Array[32:32]))
:extrafuns ((gtFIELD__temporalCounter_i3__gtAGG____anonstruct_D_Work_4_2_  Array[32:32]))
:extrafuns ((gtFIELD__is_PPVARP__gtAGG____anonstruct_bitsForTID0_5  Array[32:2]))
:extrafuns ((gtFIELD__is_PPVARP__gtAGG____anonstruct_bitsForTID0_5_1_  Array[32:2]))
:extrafuns ((gtFIELD__n_t_b__gtAGG____anonstruct_D_Work_4  Array[32:32]))
:extrafuns ((gtFIELD__n_t_b__gtAGG____anonstruct_D_Work_4_1_  Array[32:32]))
:extrafuns ((gtFIELD__is_active_PPVARP__gtAGG____anonstruct_bitsForTID0_5  Array[32:1]))
:extrafuns ((gtFIELD__is_PLRI__gtAGG____anonstruct_bitsForTID0_5_1_  Array[32:2]))
:extrafuns ((gtFIELD__is_PLRI__gtAGG____anonstruct_bitsForTID0_5_2_  Array[32:2]))
:extrafuns ((gtFIELD__is_active_PLRI__gtAGG____anonstruct_bitsForTID0_5  Array[32:1]))
:extrafuns ((gtFIELD__is_PAVI__gtAGG____anonstruct_bitsForTID0_5  Array[32:3]))
:extrafuns ((gtFIELD__is_active_PAVI__gtAGG____anonstruct_bitsForTID0_5  Array[32:1]))
:extrafuns ((sfEvent_  BitVec[32]))
:extrafuns ((gtFIELD__sent__gtAGG____anonstruct_D_Work_4  Array[32:32]))
:extrafuns ((gtFIELD__is_PLRI__gtAGG____anonstruct_bitsForTID0_5  Array[32:2]))
:extrafuns ((gtFIELD__temporalCounter_i4__gtAGG____anonstruct_D_Work_4  Array[32:32]))
:extrafuns ((gtFIELD__temporalCounter_i3__gtAGG____anonstruct_D_Work_4  Array[32:32]))
:extrafuns ((gtFIELD__temporalCounter_i2__gtAGG____anonstruct_D_Work_4  Array[32:32]))
:extrafuns ((gtFIELD__temporalCounter_i1__gtAGG____anonstruct_D_Work_4  Array[32:32]))
:extrapreds ((constraint183 ))
:extrapreds ((constraint182 ))
:extrapreds ((constraint181 ))
:extrapreds ((constraint180 ))
:extrapreds ((constraint179 ))
:extrapreds ((constraint178 ))
:extrapreds ((constraint177 ))
:extrapreds ((constraint176 ))
:extrapreds ((constraint175 ))
:extrapreds ((constraint174 ))
:extrapreds ((constraint173 ))
:extrapreds ((constraint172 ))
:extrapreds ((constraint171 ))
:extrapreds ((constraint170 ))
:extrapreds ((constraint169 ))
:extrapreds ((constraint168 ))
:extrapreds ((constraint167 ))
:extrapreds ((constraint166 ))
:extrapreds ((constraint165 ))
:extrapreds ((constraint164 ))
:extrapreds ((constraint163 ))
:extrapreds ((constraint162 ))
:extrapreds ((constraint161 ))
:extrapreds ((constraint160 ))
:extrapreds ((constraint159 ))
:extrapreds ((constraint158 ))
:extrapreds ((constraint157 ))
:extrapreds ((constraint156 ))
:extrapreds ((constraint155 ))
:extrapreds ((constraint154 ))
:extrapreds ((constraint153 ))
:extrapreds ((constraint152 ))
:extrapreds ((constraint151 ))
:extrapreds ((constraint150 ))
:extrapreds ((constraint149 ))
:extrapreds ((constraint148 ))
:extrapreds ((constraint147 ))
:extrapreds ((constraint146 ))
:extrapreds ((constraint145 ))
:extrapreds ((constraint144 ))
:extrapreds ((constraint143 ))
:extrapreds ((constraint142 ))
:extrapreds ((constraint141 ))
:extrapreds ((constraint140 ))
:extrapreds ((constraint139 ))
:extrapreds ((constraint138 ))
:extrapreds ((constraint137 ))
:extrapreds ((constraint136 ))
:extrapreds ((constraint135 ))
:extrapreds ((constraint134 ))
:extrapreds ((constraint133 ))
:extrapreds ((constraint132 ))
:extrapreds ((constraint131 ))
:extrapreds ((constraint130 ))
:extrapreds ((constraint129 ))
:extrapreds ((constraint128 ))
:extrapreds ((constraint127 ))
:extrapreds ((constraint126 ))
:extrapreds ((constraint125 ))
:extrapreds ((constraint124 ))
:extrapreds ((constraint123 ))
:extrapreds ((constraint122 ))
:extrapreds ((constraint121 ))
:extrapreds ((constraint120 ))
:extrapreds ((constraint119 ))
:extrapreds ((constraint118 ))
:extrapreds ((constraint117 ))
:extrapreds ((constraint116 ))
:extrapreds ((constraint115 ))
:extrapreds ((constraint114 ))
:extrapreds ((constraint113 ))
:extrapreds ((constraint112 ))
:extrapreds ((constraint111 ))
:extrapreds ((constraint110 ))
:extrapreds ((constraint109 ))
:extrapreds ((constraint108 ))
:extrapreds ((constraint107 ))
:extrapreds ((constraint106 ))
:extrapreds ((constraint105 ))
:extrapreds ((constraint104 ))
:extrapreds ((constraint103 ))
:extrapreds ((constraint102 ))
:extrapreds ((constraint101 ))
:extrapreds ((constraint100 ))
:extrapreds ((constraint99 ))
:extrapreds ((constraint98 ))
:extrapreds ((constraint97 ))
:extrapreds ((constraint96 ))
:extrapreds ((constraint95 ))
:extrapreds ((constraint94 ))
:extrapreds ((constraint93 ))
:extrapreds ((constraint92 ))
:extrapreds ((constraint91 ))
:extrapreds ((constraint90 ))
:extrapreds ((constraint89 ))
:extrapreds ((constraint88 ))
:extrapreds ((constraint87 ))
:extrapreds ((constraint86 ))
:extrapreds ((constraint85 ))
:extrapreds ((constraint84 ))
:extrapreds ((constraint83 ))
:extrapreds ((constraint82 ))
:extrapreds ((constraint81 ))
:extrapreds ((constraint80 ))
:extrapreds ((constraint79 ))
:extrapreds ((constraint78 ))
:extrapreds ((constraint77 ))
:extrapreds ((constraint76 ))
:extrapreds ((constraint75 ))
:extrapreds ((constraint74 ))
:extrapreds ((constraint73 ))
:extrapreds ((constraint72 ))
:extrapreds ((constraint71 ))
:extrapreds ((constraint70 ))
:extrapreds ((constraint69 ))
:extrapreds ((constraint68 ))
:extrapreds ((constraint67 ))
:extrapreds ((constraint66 ))
:extrapreds ((constraint65 ))
:extrapreds ((constraint64 ))
:extrapreds ((constraint63 ))
:extrapreds ((constraint62 ))
:extrapreds ((constraint61 ))
:extrapreds ((constraint60 ))
:extrapreds ((constraint59 ))
:extrapreds ((constraint58 ))
:extrapreds ((constraint57 ))
:extrapreds ((constraint56 ))
:extrapreds ((constraint55 ))
:extrapreds ((constraint54 ))
:extrapreds ((constraint53 ))
:extrapreds ((constraint52 ))
:extrapreds ((constraint51 ))
:extrapreds ((constraint50 ))
:extrapreds ((constraint49 ))
:extrapreds ((constraint48 ))
:extrapreds ((constraint47 ))
:extrapreds ((constraint46 ))
:extrapreds ((constraint45 ))
:extrapreds ((constraint44 ))
:extrapreds ((constraint43 ))
:extrapreds ((constraint42 ))
:extrapreds ((constraint41 ))
:extrapreds ((constraint40 ))
:extrapreds ((constraint39 ))
:extrapreds ((constraint38 ))
:extrapreds ((constraint37 ))
:extrapreds ((constraint36 ))
:extrapreds ((constraint35 ))
:extrapreds ((constraint34 ))
:extrapreds ((constraint33 ))
:extrapreds ((constraint32 ))
:extrapreds ((constraint31 ))
:extrapreds ((constraint30 ))
:extrapreds ((constraint29 ))
:extrapreds ((constraint28 ))
:extrapreds ((constraint27 ))
:extrapreds ((constraint26 ))
:extrapreds ((constraint25 ))
:extrapreds ((constraint24 ))
:extrapreds ((constraint23 ))
:extrapreds ((constraint22 ))
:extrapreds ((constraint21 ))
:extrapreds ((constraint20 ))
:extrapreds ((constraint19 ))
:extrapreds ((constraint18 ))
:extrapreds ((constraint17 ))
:extrapreds ((constraint16 ))
:extrapreds ((constraint15 ))
:extrapreds ((constraint14 ))
:extrapreds ((constraint13 ))
:extrapreds ((constraint12 ))
:extrapreds ((constraint11 ))
:extrapreds ((constraint10 ))
:extrapreds ((constraint9 ))
:extrapreds ((constraint8 ))
:extrapreds ((constraint7 ))
:extrapreds ((constraint6 ))
:extrapreds ((constraint5 ))
:extrapreds ((constraint4 ))
:extrapreds ((constraint3 ))
:extrapreds ((constraint2 ))
:extrapreds ((constraint1 ))
:extrapreds ((constraint0 ))
:formula
(flet ($x917 (and constraint0 constraint1 constraint2 constraint3 constraint4 constraint5 constraint6 constraint7 constraint8 constraint9 constraint10 constraint11 constraint12 constraint13 constraint14 constraint15 constraint16 constraint17 constraint18 constraint19 constraint20 constraint21 constraint22 constraint23 constraint24 constraint25 constraint26 constraint27 constraint28 constraint29 constraint30 constraint31 constraint32 constraint33 constraint34 constraint35 constraint36 constraint37 constraint38 constraint39 constraint40 constraint41 constraint42 constraint43 constraint44 constraint45 constraint46 constraint47 constraint48 constraint49 constraint50 constraint51 constraint52 constraint53 constraint54 constraint55 constraint56 constraint57 constraint58 constraint59 constraint60 constraint61 constraint62 constraint63 constraint64 constraint65 constraint66 constraint67 constraint68 constraint69 constraint70 constraint71 constraint72 constraint73 constraint74 constraint75 constraint76 constraint77 constraint78 constraint79 constraint80 constraint81 constraint82 constraint83 constraint84 constraint85 constraint86 constraint87 constraint88 constraint89 constraint90 constraint91 constraint92 constraint93 constraint94 constraint95 constraint96 constraint97 constraint98 constraint99 constraint100 constraint101 constraint102 constraint103 constraint104 constraint105 constraint106 constraint107 constraint108 constraint109 constraint110 constraint111 constraint112 constraint113 constraint114 constraint115 constraint116 constraint117 constraint118 constraint119 constraint120 constraint121 constraint122 constraint123 constraint124 constraint125 constraint126 constraint127 constraint128 constraint129 constraint130 constraint131 constraint132 constraint133 constraint134 constraint135 constraint136 constraint137 constraint138 constraint139 constraint140 constraint141 constraint142 constraint143 constraint144 constraint145 constraint146 constraint147 constraint148 constraint149 constraint150 constraint151 constraint152 constraint153 constraint154 constraint155 constraint156 constraint157 constraint158 constraint159 constraint160 constraint161 constraint162 constraint163 constraint164 constraint165 constraint166 constraint167 constraint168 constraint169 constraint170 constraint171 constraint172 constraint173 constraint174 constraint175 constraint176 constraint177 constraint178 constraint179 constraint180 constraint181 constraint182 constraint183))
(let (?x546 (select gtFIELD__bitsForTID0__gtAGG____anonstruct_D_Work_4 gtINDEX104))
(let (?x542 (select gtFIELD__bitsForTID0__gtAGG____anonstruct_D_Work_4 gtINDEX102))
(let (?x538 (select gtFIELD__bitsForTID0__gtAGG____anonstruct_D_Work_4 gtINDEX100))
(flet ($x535 (= gtINDEX99 (select gtFIELD__bitsForTID0__gtAGG____anonstruct_D_Work_4 gtINDEX98)))
(flet ($x527 (= gtINDEX93 (select gtFIELD__bitsForTID0__gtAGG____anonstruct_D_Work_4 gtINDEX92)))
(flet ($x523 (= gtINDEX91 (select gtFIELD__bitsForTID0__gtAGG____anonstruct_D_Work_4 gtINDEX90)))
(flet ($x518 (= gtINDEX88 (select gtFIELD__bitsForTID0__gtAGG____anonstruct_D_Work_4 gtINDEX87)))
(flet ($x514 (= gtINDEX86 (select gtFIELD__bitsForTID0__gtAGG____anonstruct_D_Work_4 gtINDEX85)))
(flet ($x508 (= gtINDEX82 (select gtFIELD__bitsForTID0__gtAGG____anonstruct_D_Work_4 gtINDEX81)))
(flet ($x504 (= gtINDEX80 (select gtFIELD__bitsForTID0__gtAGG____anonstruct_D_Work_4 gtINDEX79)))
(flet ($x500 (= gtINDEX78 (select gtFIELD__bitsForTID0__gtAGG____anonstruct_D_Work_4 gtINDEX77)))
(flet ($x495 (= gtINDEX75 (select gtFIELD__bitsForTID0__gtAGG____anonstruct_D_Work_4 gtINDEX74)))
(flet ($x491 (= gtINDEX73 (select gtFIELD__bitsForTID0__gtAGG____anonstruct_D_Work_4 gtINDEX72)))
(flet ($x487 (= gtINDEX71 (select gtFIELD__bitsForTID0__gtAGG____anonstruct_D_Work_4 gtINDEX70)))
(flet ($x482 (= gtINDEX68 (select gtFIELD__bitsForTID0__gtAGG____anonstruct_D_Work_4 gtINDEX67)))
(flet ($x477 (= gtINDEX65 (select gtFIELD__bitsForTID0__gtAGG____anonstruct_D_Work_4 gtINDEX64)))
(flet ($x473 (= gtINDEX63 (select gtFIELD__bitsForTID0__gtAGG____anonstruct_D_Work_4 gtINDEX62)))
(flet ($x469 (= gtINDEX61 (select gtFIELD__bitsForTID0__gtAGG____anonstruct_D_Work_4 gtINDEX60)))
(flet ($x465 (= gtINDEX59 (select gtFIELD__bitsForTID0__gtAGG____anonstruct_D_Work_4 gtINDEX58)))
(flet ($x461 (= gtINDEX57 (select gtFIELD__bitsForTID0__gtAGG____anonstruct_D_Work_4 gtINDEX56)))
(flet ($x457 (= gtINDEX55 (select gtFIELD__bitsForTID0__gtAGG____anonstruct_D_Work_4 gtINDEX54)))
(flet ($x453 (= gtINDEX53 (select gtFIELD__bitsForTID0__gtAGG____anonstruct_D_Work_4 gtINDEX52)))
(flet ($x449 (= gtINDEX51 (select gtFIELD__bitsForTID0__gtAGG____anonstruct_D_Work_4 gtINDEX50)))
(flet ($x445 (= gtINDEX49 (select gtFIELD__bitsForTID0__gtAGG____anonstruct_D_Work_4 gtINDEX48)))
(flet ($x441 (= gtINDEX47 (select gtFIELD__bitsForTID0__gtAGG____anonstruct_D_Work_4 gtINDEX46)))
(flet ($x435 (= gtINDEX43 (select gtFIELD__bitsForTID0__gtAGG____anonstruct_D_Work_4 gtINDEX42)))
(flet ($x431 (= gtINDEX41 (select gtFIELD__bitsForTID0__gtAGG____anonstruct_D_Work_4 gtINDEX40)))
(flet ($x427 (= gtINDEX39 (select gtFIELD__bitsForTID0__gtAGG____anonstruct_D_Work_4 gtINDEX38)))
(flet ($x423 (= gtINDEX37 (select gtFIELD__bitsForTID0__gtAGG____anonstruct_D_Work_4 gtINDEX36)))
(flet ($x419 (= gtINDEX35 (select gtFIELD__bitsForTID0__gtAGG____anonstruct_D_Work_4 gtINDEX34)))
(flet ($x414 (= gtINDEX32 (select gtFIELD__bitsForTID0__gtAGG____anonstruct_D_Work_4 gtINDEX31)))
(flet ($x410 (= gtINDEX30 (select gtFIELD__bitsForTID0__gtAGG____anonstruct_D_Work_4 gtINDEX29)))
(flet ($x406 (= gtINDEX28 (select gtFIELD__bitsForTID0__gtAGG____anonstruct_D_Work_4 gtINDEX27)))
(flet ($x402 (= gtINDEX26 (select gtFIELD__bitsForTID0__gtAGG____anonstruct_D_Work_4 gtINDEX25)))
(flet ($x398 (= gtINDEX24 (select gtFIELD__bitsForTID0__gtAGG____anonstruct_D_Work_4 gtINDEX23)))
(flet ($x394 (= gtINDEX22 (select gtFIELD__bitsForTID0__gtAGG____anonstruct_D_Work_4 gtINDEX21)))
(flet ($x390 (= gtINDEX20 (select gtFIELD__bitsForTID0__gtAGG____anonstruct_D_Work_4 gtINDEX19)))
(flet ($x386 (= gtINDEX18 (select gtFIELD__bitsForTID0__gtAGG____anonstruct_D_Work_4 gtINDEX17)))
(flet ($x382 (= gtINDEX16 (select gtFIELD__bitsForTID0__gtAGG____anonstruct_D_Work_4 gtINDEX15)))
(flet ($x378 (= gtINDEX14 (select gtFIELD__bitsForTID0__gtAGG____anonstruct_D_Work_4 gtINDEX13)))
(flet ($x374 (= gtINDEX12 (select gtFIELD__bitsForTID0__gtAGG____anonstruct_D_Work_4 gtINDEX11)))
(flet ($x370 (= gtINDEX10 (select gtFIELD__bitsForTID0__gtAGG____anonstruct_D_Work_4 gtINDEX9)))
(flet ($x366 (= gtINDEX8 (select gtFIELD__bitsForTID0__gtAGG____anonstruct_D_Work_4 gtINDEX7)))
(let (?x343 (extract[0:0] bv1[32]))
(let (?x353 (store gtFIELD__is_Eng__gtAGG____anonstruct_bitsForTID0_5_1_ gtINDEX105 ?x343))
(flet ($x703 (iff constraint77 (= gtFIELD__is_Eng__gtAGG____anonstruct_bitsForTID0_5_2_ ?x353)))
(let (?x349 (select gtFIELD__is_Eng__gtAGG____anonstruct_bitsForTID0_5_1_ gtINDEX103))
(let (?x344 (store gtFIELD__is_Eng__gtAGG____anonstruct_bitsForTID0_5 gtINDEX101 ?x343))
(flet ($x697 (iff constraint74 (= gtFIELD__is_Eng__gtAGG____anonstruct_bitsForTID0_5_1_ ?x344)))
(let (?x340 (zero_extend[31] (select gtFIELD__is_Eng__gtAGG____anonstruct_bitsForTID0_5 gtINDEX99)))
(let (?x336 (store gtFIELD__sent__gtAGG____anonstruct_D_Work_4_1_ gtINDEX97 bv0[32]))
(flet ($x693 (iff constraint72 (= gtFIELD__sent__gtAGG____anonstruct_D_Work_4_2_ ?x336)))
(let (?x196 (bvmul bv4294967295[32] bv1[32]))
(flet ($x334 (= (select gtFIELD__sent__gtAGG____anonstruct_D_Work_4_1_ gtINDEX96) ?x196))
(flet ($x330 (= (select gtFIELD__sent__gtAGG____anonstruct_D_Work_4_1_ gtINDEX95) bv9[32]))
(flet ($x325 (= (select gtFIELD__sent__gtAGG____anonstruct_D_Work_4_1_ gtINDEX94) bv4[32]))
(let (?x321 (zero_extend[31] (select gtFIELD__is_Eng__gtAGG____anonstruct_bitsForTID0_5 gtINDEX93)))
(let (?x315 (select gtFIELD__is_active_Eng__gtAGG____anonstruct_bitsForTID0_5 gtINDEX91))
(let (?x312 (store gtFIELD__temporalCounter_i5__gtAGG____anonstruct_D_Work_4 gtINDEX89 bv0[32]))
(flet ($x681 (iff constraint66 (= gtFIELD__temporalCounter_i5__gtAGG____anonstruct_D_Work_4_1_ ?x312)))
(let (?x309 (store gtFIELD__is_PURI__gtAGG____anonstruct_bitsForTID0_5 gtINDEX88 (extract[1:0] bv1[32])))
(flet ($x679 (iff constraint65 (= gtFIELD__is_PURI__gtAGG____anonstruct_bitsForTID0_5_1_ ?x309)))
(let (?x305 (store gtFIELD__URIex__gtAGG____anonstruct_bitsForTID0_5 gtINDEX86 (extract[0:0] bv0[32])))
(flet ($x677 (iff constraint64 (= gtFIELD__URIex__gtAGG____anonstruct_bitsForTID0_5_1_ ?x305)))
(flet ($x302 (= gtFIELD__sh_rst__gtAGG____anonstruct_D_Work_4_1_ (store gtFIELD__sh_rst__gtAGG____anonstruct_D_Work_4 gtINDEX84 bv1[32])))
(flet ($x299 (= gtFIELD__n_t_a__gtAGG____anonstruct_D_Work_4_1_ (store gtFIELD__n_t_a__gtAGG____anonstruct_D_Work_4 gtINDEX83 bv0[32])))
(let (?x294 (select gtFIELD__is_PURI__gtAGG____anonstruct_bitsForTID0_5 gtINDEX82))
(let (?x289 (select gtFIELD__is_PURI__gtAGG____anonstruct_bitsForTID0_5 gtINDEX80))
(let (?x284 (select gtFIELD__is_active_PURI__gtAGG____anonstruct_bitsForTID0_5 gtINDEX78))
(flet ($x281 (= (select gtFIELD__sent__gtAGG____anonstruct_D_Work_4_1_ gtINDEX76) bv0[32]))
(let (?x276 (select gtFIELD__is_PVRP__gtAGG____anonstruct_bitsForTID0_5 gtINDEX75))
(let (?x271 (select gtFIELD__is_PVRP__gtAGG____anonstruct_bitsForTID0_5 gtINDEX73))
(let (?x266 (select gtFIELD__is_active_PVRP__gtAGG____anonstruct_bitsForTID0_5 gtINDEX71))
(let (?x263 (store gtFIELD__temporalCounter_i3__gtAGG____anonstruct_D_Work_4_1_ gtINDEX69 bv0[32]))
(flet ($x653 (iff constraint52 (= gtFIELD__temporalCounter_i3__gtAGG____anonstruct_D_Work_4_2_ ?x263)))
(let (?x260 (store gtFIELD__is_PPVARP__gtAGG____anonstruct_bitsForTID0_5 gtINDEX68 (extract[1:0] bv2[32])))
(flet ($x651 (iff constraint51 (= gtFIELD__is_PPVARP__gtAGG____anonstruct_bitsForTID0_5_1_ ?x260)))
(flet ($x257 (= gtFIELD__n_t_b__gtAGG____anonstruct_D_Work_4_1_ (store gtFIELD__n_t_b__gtAGG____anonstruct_D_Work_4 gtINDEX66 bv0[32])))
(let (?x250 (select gtFIELD__is_PPVARP__gtAGG____anonstruct_bitsForTID0_5 gtINDEX65))
(let (?x245 (select gtFIELD__is_active_PPVARP__gtAGG____anonstruct_bitsForTID0_5 gtINDEX63))
(let (?x131 (extract[1:0] bv0[32]))
(let (?x242 (store gtFIELD__is_PLRI__gtAGG____anonstruct_bitsForTID0_5_1_ gtINDEX61 ?x131))
(flet ($x639 (iff constraint45 (= gtFIELD__is_PLRI__gtAGG____anonstruct_bitsForTID0_5_2_ ?x242)))
(let (?x237 (select gtFIELD__is_PLRI__gtAGG____anonstruct_bitsForTID0_5_1_ gtINDEX59))
(let (?x232 (select gtFIELD__is_PLRI__gtAGG____anonstruct_bitsForTID0_5_1_ gtINDEX57))
(let (?x227 (select gtFIELD__is_active_PLRI__gtAGG____anonstruct_bitsForTID0_5 gtINDEX55))
(let (?x221 (select gtFIELD__is_PAVI__gtAGG____anonstruct_bitsForTID0_5 gtINDEX53))
(let (?x216 (select gtFIELD__is_PAVI__gtAGG____anonstruct_bitsForTID0_5 gtINDEX51))
(let (?x211 (select gtFIELD__is_PAVI__gtAGG____anonstruct_bitsForTID0_5 gtINDEX49))
(let (?x206 (select gtFIELD__is_active_PAVI__gtAGG____anonstruct_bitsForTID0_5 gtINDEX47))
(flet ($x198 (= gtFIELD__sent__gtAGG____anonstruct_D_Work_4_1_ (store gtFIELD__sent__gtAGG____anonstruct_D_Work_4 gtINDEX45 ?x196)))
(flet ($x194 (= (select gtFIELD__sent__gtAGG____anonstruct_D_Work_4 gtINDEX44) bv4[32]))
(let (?x190 (zero_extend[31] (select gtFIELD__is_Eng__gtAGG____anonstruct_bitsForTID0_5 gtINDEX43)))
(let (?x184 (select gtFIELD__is_active_Eng__gtAGG____anonstruct_bitsForTID0_5 gtINDEX41))
(let (?x180 (select gtFIELD__is_PURI__gtAGG____anonstruct_bitsForTID0_5 gtINDEX39))
(let (?x175 (select gtFIELD__is_PURI__gtAGG____anonstruct_bitsForTID0_5 gtINDEX37))
(let (?x170 (select gtFIELD__is_active_PURI__gtAGG____anonstruct_bitsForTID0_5 gtINDEX35))
(flet ($x167 (= (select gtFIELD__sent__gtAGG____anonstruct_D_Work_4 gtINDEX33) bv0[32]))
(let (?x162 (select gtFIELD__is_PVRP__gtAGG____anonstruct_bitsForTID0_5 gtINDEX32))
(let (?x157 (select gtFIELD__is_PVRP__gtAGG____anonstruct_bitsForTID0_5 gtINDEX30))
(let (?x152 (select gtFIELD__is_active_PVRP__gtAGG____anonstruct_bitsForTID0_5 gtINDEX28))
(let (?x140 (select gtFIELD__is_PPVARP__gtAGG____anonstruct_bitsForTID0_5 gtINDEX26))
(let (?x135 (select gtFIELD__is_active_PPVARP__gtAGG____anonstruct_bitsForTID0_5 gtINDEX24))
(let (?x132 (store gtFIELD__is_PLRI__gtAGG____anonstruct_bitsForTID0_5 gtINDEX22 ?x131))
(flet ($x579 (iff constraint15 (= gtFIELD__is_PLRI__gtAGG____anonstruct_bitsForTID0_5_1_ ?x132)))
(let (?x126 (select gtFIELD__is_PLRI__gtAGG____anonstruct_bitsForTID0_5 gtINDEX20))
(let (?x121 (select gtFIELD__is_PLRI__gtAGG____anonstruct_bitsForTID0_5 gtINDEX18))
(let (?x116 (select gtFIELD__is_active_PLRI__gtAGG____anonstruct_bitsForTID0_5 gtINDEX16))
(let (?x108 (select gtFIELD__is_PAVI__gtAGG____anonstruct_bitsForTID0_5 gtINDEX14))
(let (?x102 (select gtFIELD__is_PAVI__gtAGG____anonstruct_bitsForTID0_5 gtINDEX12))
(let (?x97 (select gtFIELD__is_PAVI__gtAGG____anonstruct_bitsForTID0_5 gtINDEX10))
(let (?x91 (select gtFIELD__is_active_PAVI__gtAGG____anonstruct_bitsForTID0_5 gtINDEX8))
(let (?x87 (select gtFIELD__temporalCounter_i5__gtAGG____anonstruct_D_Work_4 gtINDEX6))
(let (?x83 (select gtFIELD__temporalCounter_i4__gtAGG____anonstruct_D_Work_4 gtINDEX5))
(let (?x77 (select gtFIELD__temporalCounter_i3__gtAGG____anonstruct_D_Work_4 gtINDEX3))
(let (?x80 (store gtFIELD__temporalCounter_i3__gtAGG____anonstruct_D_Work_4 gtINDEX4 (bvadd ?x77 bv1[32])))
(flet ($x557 (iff constraint4 (= gtFIELD__temporalCounter_i3__gtAGG____anonstruct_D_Work_4_1_ ?x80)))
(let (?x73 (select gtFIELD__temporalCounter_i3__gtAGG____anonstruct_D_Work_4 gtINDEX2))
(let (?x69 (select gtFIELD__temporalCounter_i2__gtAGG____anonstruct_D_Work_4 gtINDEX1))
(let (?x64 (select gtFIELD__temporalCounter_i1__gtAGG____anonstruct_D_Work_4 gtINDEX0))
(flet ($x916 (and (iff constraint0 (= sfEvent_ bv8[32])) (iff constraint1 (not (bvult ?x64 bv4294967295[32]))) (iff constraint2 (not (bvult ?x69 bv4294967295[32]))) (iff constraint3 (bvult ?x73 bv4294967295[32])) $x557 (iff constraint5 (not (bvult ?x83 bv4294967295[32]))) (iff constraint6 (not (bvult ?x87 bv4294967295[32]))) (iff constraint7 (not (= (zero_extend[31] ?x91) bv0[32]))) (iff constraint8 (not (= (zero_extend[29] ?x97) bv1[32]))) (iff constraint9 (not (= (zero_extend[29] ?x102) bv2[32]))) (iff constraint10 (= (zero_extend[29] ?x108) bv3[32])) (iff constraint11 (not (= sfEvent_ bv6[32]))) (iff constraint12 (not (= (zero_extend[31] ?x116) bv0[32]))) (iff constraint13 (not (= (zero_extend[30] ?x121) bv1[32]))) (iff constraint14 (not (= (zero_extend[30] ?x126) bv2[32]))) $x579 (iff constraint16 (not (= (zero_extend[31] ?x135) bv0[32]))) (iff constraint17 (= (zero_extend[30] ?x140) bv1[32])) (iff constraint18 (not (= sfEvent_ bv4[32]))) (iff constraint19 (not (= sfEvent_ bv5[32]))) (iff constraint20 (not (= sfEvent_ bv1[32]))) (iff constraint21 (not (= (zero_extend[31] ?x152) bv0[32]))) (iff constraint22 (not (= (zero_extend[30] ?x157) bv1[32]))) (iff constraint23 (= (zero_extend[30] ?x162) bv2[32])) (iff constraint24 (not $x167)) (iff constraint25 (not (= (zero_extend[31] ?x170) bv0[32]))) (iff constraint26 (not (= (zero_extend[30] ?x175) bv1[32]))) (iff constraint27 (= (zero_extend[30] ?x180) bv2[32])) (iff constraint28 (not (= sfEvent_ bv4[32]))) (iff constraint29 (not (= sfEvent_ bv5[32]))) (iff constraint30 (not (= (zero_extend[31] ?x184) bv0[32]))) (iff constraint31 (= ?x190 bv1[32])) (iff constraint32 $x194) (iff constraint33 $x198) (iff constraint34 (= sf_previousEvent_1_ sfEvent_)) (iff constraint35 (= sfEvent__1_ bv5[32])) (iff constraint36 (not (= sfEvent__1_ bv8[32]))) (iff constraint37 (not (= (zero_extend[31] ?x206) bv0[32]))) (iff constraint38 (not (= (zero_extend[29] ?x211) bv1[32]))) (iff constraint39 (not (= (zero_extend[29] ?x216) bv2[32]))) (iff constraint40 (= (zero_extend[29] ?x221) bv3[32])) (iff constraint41 (not (= sfEvent__1_ bv6[32]))) (iff constraint42 (not (= (zero_extend[31] ?x227) bv0[32]))) (iff constraint43 (not (= (zero_extend[30] ?x232) bv1[32]))) (iff constraint44 (not (= (zero_extend[30] ?x237) bv2[32]))) $x639 (iff constraint46 (not (= (zero_extend[31] ?x245) bv0[32]))) (iff constraint47 (= (zero_extend[30] ?x250) bv1[32])) (iff constraint48 (not (= sfEvent__1_ bv4[32]))) (iff constraint49 (= sfEvent__1_ bv5[32])) (iff constraint50 $x257) $x651 $x653 (iff constraint53 (not (= (zero_extend[31] ?x266) bv0[32]))) (iff constraint54 (not (= (zero_extend[30] ?x271) bv1[32]))) (iff constraint55 (= (zero_extend[30] ?x276) bv2[32])) (iff constraint56 (not $x281)) (iff constraint57 (not (= (zero_extend[31] ?x284) bv0[32]))) (iff constraint58 (not (= (zero_extend[30] ?x289) bv1[32]))) (iff constraint59 (= (zero_extend[30] ?x294) bv2[32])) (iff constraint60 (not (= sfEvent__1_ bv4[32]))) (iff constraint61 (= sfEvent__1_ bv5[32])) (iff constraint62 $x299) (iff constraint63 $x302) $x677 $x679 $x681 (iff constraint67 (not (= (zero_extend[31] ?x315) bv0[32]))) (iff constraint68 (= ?x321 bv1[32])) (iff constraint69 (not $x325)) (iff constraint70 (not $x330)) (iff constraint71 $x334) $x693 (iff constraint73 (= ?x340 bv1[32])) $x697 (iff constraint75 (= sfEvent__2_ sf_previousEvent_1_)) (iff constraint76 (= (zero_extend[31] ?x349) bv1[32])) $x703 (iff constraint78 (= gtINDEX0 gtAGG__rtDWork)) (iff constraint79 (= gtINDEX1 gtAGG__rtDWork)) (iff constraint80 (= gtINDEX2 gtAGG__rtDWork)) (iff constraint81 (= gtINDEX3 gtAGG__rtDWork)) (iff constraint82 (= gtINDEX4 gtAGG__rtDWork)) (iff constraint83 (= gtINDEX5 gtAGG__rtDWork)) (iff constraint84 (= gtINDEX6 gtAGG__rtDWork)) (iff constraint85 (= gtINDEX7 gtAGG__rtDWork)) (iff constraint86 $x366) (iff constraint87 (= gtINDEX9 gtAGG__rtDWork)) (iff constraint88 $x370) (iff constraint89 (= gtINDEX11 gtAGG__rtDWork)) (iff constraint90 $x374) (iff constraint91 (= gtINDEX13 gtAGG__rtDWork)) (iff constraint92 $x378) (iff constraint93 (= gtINDEX15 gtAGG__rtDWork)) (iff constraint94 $x382) (iff constraint95 (= gtINDEX17 gtAGG__rtDWork)) (iff constraint96 $x386) (iff constraint97 (= gtINDEX19 gtAGG__rtDWork)) (iff constraint98 $x390) (iff constraint99 (= gtINDEX21 gtAGG__rtDWork)) (iff constraint100 $x394) (iff constraint101 (= gtINDEX23 gtAGG__rtDWork)) (iff constraint102 $x398) (iff constraint103 (= gtINDEX25 gtAGG__rtDWork)) (iff constraint104 $x402) (iff constraint105 (= gtINDEX27 gtAGG__rtDWork)) (iff constraint106 $x406) (iff constraint107 (= gtINDEX29 gtAGG__rtDWork)) (iff constraint108 $x410) (iff constraint109 (= gtINDEX31 gtAGG__rtDWork)) (iff constraint110 $x414) (iff constraint111 (= gtINDEX33 gtAGG__rtDWork)) (iff constraint112 (= gtINDEX34 gtAGG__rtDWork)) (iff constraint113 $x419) (iff constraint114 (= gtINDEX36 gtAGG__rtDWork)) (iff constraint115 $x423) (iff constraint116 (= gtINDEX38 gtAGG__rtDWork)) (iff constraint117 $x427) (iff constraint118 (= gtINDEX40 gtAGG__rtDWork)) (iff constraint119 $x431) (iff constraint120 (= gtINDEX42 gtAGG__rtDWork)) (iff constraint121 $x435) (iff constraint122 (= gtINDEX44 gtAGG__rtDWork)) (iff constraint123 (= gtINDEX45 gtAGG__rtDWork)) (iff constraint124 (= gtINDEX46 gtAGG__rtDWork)) (iff constraint125 $x441) (iff constraint126 (= gtINDEX48 gtAGG__rtDWork)) (iff constraint127 $x445) (iff constraint128 (= gtINDEX50 gtAGG__rtDWork)) (iff constraint129 $x449) (iff constraint130 (= gtINDEX52 gtAGG__rtDWork)) (iff constraint131 $x453) (iff constraint132 (= gtINDEX54 gtAGG__rtDWork)) (iff constraint133 $x457) (iff constraint134 (= gtINDEX56 gtAGG__rtDWork)) (iff constraint135 $x461) (iff constraint136 (= gtINDEX58 gtAGG__rtDWork)) (iff constraint137 $x465) (iff constraint138 (= gtINDEX60 gtAGG__rtDWork)) (iff constraint139 $x469) (iff constraint140 (= gtINDEX62 gtAGG__rtDWork)) (iff constraint141 $x473) (iff constraint142 (= gtINDEX64 gtAGG__rtDWork)) (iff constraint143 $x477) (iff constraint144 (= gtINDEX66 gtAGG__rtDWork)) (iff constraint145 (= gtINDEX67 gtAGG__rtDWork)) (iff constraint146 $x482) (iff constraint147 (= gtINDEX69 gtAGG__rtDWork)) (iff constraint148 (= gtINDEX70 gtAGG__rtDWork)) (iff constraint149 $x487) (iff constraint150 (= gtINDEX72 gtAGG__rtDWork)) (iff constraint151 $x491) (iff constraint152 (= gtINDEX74 gtAGG__rtDWork)) (iff constraint153 $x495) (iff constraint154 (= gtINDEX76 gtAGG__rtDWork)) (iff constraint155 (= gtINDEX77 gtAGG__rtDWork)) (iff constraint156 $x500) (iff constraint157 (= gtINDEX79 gtAGG__rtDWork)) (iff constraint158 $x504) (iff constraint159 (= gtINDEX81 gtAGG__rtDWork)) (iff constraint160 $x508) (iff constraint161 (= gtINDEX83 gtAGG__rtDWork)) (iff constraint162 (= gtINDEX84 gtAGG__rtDWork)) (iff constraint163 (= gtINDEX85 gtAGG__rtDWork)) (iff constraint164 $x514) (iff constraint165 (= gtINDEX87 gtAGG__rtDWork)) (iff constraint166 $x518) (iff constraint167 (= gtINDEX89 gtAGG__rtDWork)) (iff constraint168 (= gtINDEX90 gtAGG__rtDWork)) (iff constraint169 $x523) (iff constraint170 (= gtINDEX92 gtAGG__rtDWork)) (iff constraint171 $x527) (iff constraint172 (= gtINDEX94 gtAGG__rtDWork)) (iff constraint173 (= gtINDEX95 gtAGG__rtDWork)) (iff constraint174 (= gtINDEX96 gtAGG__rtDWork)) (iff constraint175 (= gtINDEX97 gtAGG__rtDWork)) (iff constraint176 (= gtINDEX98 gtAGG__rtDWork)) (iff constraint177 $x535) (iff constraint178 (= gtINDEX100 gtAGG__rtDWork)) (iff constraint179 (= gtINDEX101 ?x538)) (iff constraint180 (= gtINDEX102 gtAGG__rtDWork)) (iff constraint181 (= gtINDEX103 ?x542)) (iff constraint182 (= gtINDEX104 gtAGG__rtDWork)) (iff constraint183 (= gtINDEX105 ?x546))))
(and $x916 $x917)))))))))))))))))))))))))))))))))))))))))))))))))))))))))))))))))))))))))))))))))))))))))))))))))))))))))))))))))))))))))))
)
